NAME : A-n32-k5
COMMENT : (Augerat et al, Min no of trucks: 5, Optimal value: 784)
TYPE : CVRP
DIMENSION : 4
EDGE_WEIGHT_TYPE : EUC_2D
CAPACITY : 100
NODE_COORD_SECTION
1	1	1
2	3	3
3	5	4
4	8	5
DEMAND_SECTION
1 10
2 10
3 10
4 10
DEPOT_SECTION
 1
 -1
EOF
